; benchmark generated from python API
(set-info :status unknown)
(declare-fun strlen_85_64 () (_ BitVec 64))
(declare-fun args_1_8 () (_ BitVec 8))
(declare-fun strlen_83_64 () (_ BitVec 64))
(declare-fun strncmp_ret_84_32 () (_ BitVec 32))
(declare-fun strncmp_ret_86_32 () (_ BitVec 32))
(declare-fun filesize_file_0_/proc/self/loginuid_88_64 () (_ BitVec 64))
(declare-fun syscall_stub_ioctl_95_32 () (_ BitVec 32))
(declare-fun syscall_stub_newfstatat_124_64 () (_ BitVec 64))
(declare-fun syscall_stub_readlink_160_64 () (_ BitVec 64))
(declare-fun mem_7fffffffffef420_174_8 () (_ BitVec 8))
(declare-fun syscall_stub_newfstatat_220_64 () (_ BitVec 64))
(declare-fun mem_7fffffffffef038_297_64 () (_ BitVec 64))
(declare-fun mem_7fffffffffeefa8_298_64 () (_ BitVec 64))
(declare-fun mem_7fffffffffeefa0_344_64 () (_ BitVec 64))
(declare-fun mem_7fffffffffef030_345_64 () (_ BitVec 64))
(declare-fun mem_7fffffffffef048_398_32 () (_ BitVec 32))
(declare-fun mem_7fffffffffeefc8_430_64 () (_ BitVec 64))
(declare-fun mem_7fffffffffef058_431_64 () (_ BitVec 64))
(declare-fun strlen_986_64 () (_ BitVec 64))
(declare-fun mem_7fffffffffef425_984_64 () (_ BitVec 64))
(declare-fun access_2286_32 () (_ BitVec 32))
(declare-fun access_3256_32 () (_ BitVec 32))
(declare-fun strlen_8788_64 () (_ BitVec 64))
(declare-fun mem_2c_8787_264 () (_ BitVec 264))
(declare-fun strlen_10770_64 () (_ BitVec 64))
(declare-fun mem_7fffffffffef740_9645_248 () (_ BitVec 248))
(assert
 (let ((?x751 (bvadd (_ bv576460752303357826 64) strlen_85_64)))
 (let (($x69 (= (_ bv0 8) args_1_8)))
 (let ((?x46 (ite $x69 (_ bv576460752303357826 64) (_ bv576460752303357827 64))))
 (= ?x46 ?x751)))))
(assert
 (let ((?x101 (bvadd (_ bv576460752303357826 64) strlen_83_64)))
 (let (($x69 (= (_ bv0 8) args_1_8)))
 (let ((?x46 (ite $x69 (_ bv576460752303357826 64) (_ bv576460752303357827 64))))
 (= ?x46 ?x101)))))
(assert
 (let (($x104 (bvule (_ bv2 64) strlen_83_64)))
 (let (($x48 (= (_ bv2 64) strlen_83_64)))
 (let (($x122 (or $x48 $x104)))
 (let (($x123 (not $x122)))
 (let (($x57 (= (_ bv45 8) args_1_8)))
 (let (($x121 (not $x57)))
 (or $x121 $x123))))))))
(assert
 (= (_ bv1 32) strncmp_ret_84_32))
(assert
 (= (_ bv1 32) strncmp_ret_86_32))
(assert
 true)
(assert
 (let (($x1210 (bvsge (_ bv0 64) filesize_file_0_/proc/self/loginuid_88_64)))
 (let ((?x1217 (ite $x1210 (_ bv0 64) filesize_file_0_/proc/self/loginuid_88_64)))
 (let ((?x1236 ((_ extract 3 0) filesize_file_0_/proc/self/loginuid_88_64)))
 (let ((?x99 (ite $x1210 (_ bv0 4) ?x1236)))
 (let (($x1110 (bvule ?x99 (_ bv12 4))))
 (let ((?x1229 ((_ extract 63 4) filesize_file_0_/proc/self/loginuid_88_64)))
 (let (($x523 (= (_ bv0 60) ?x1229)))
 (let (($x516 (or $x1210 $x523)))
 (let (($x975 (and $x516 $x1110)))
 (let ((?x1169 (ite $x975 ?x1217 (_ bv12 64))))
 (= (_ bv12 64) ?x1169))))))))))))
(assert
 (= (_ bv0 32) syscall_stub_ioctl_95_32))
(assert
 (let ((?x3122 ((_ extract 31 0) syscall_stub_newfstatat_124_64)))
 (bvule ?x3122 (_ bv4294963200 32))))
(assert
 (= (_ bv13 64) syscall_stub_readlink_160_64))
(assert
 (= (_ bv47 8) mem_7fffffffffef420_174_8))
(assert
 (let ((?x116194 ((_ extract 31 0) syscall_stub_newfstatat_220_64)))
 (bvule ?x116194 (_ bv4294963200 32))))
(assert
 (= mem_7fffffffffeefa8_298_64 mem_7fffffffffef038_297_64))
(assert
 (= mem_7fffffffffef030_345_64 mem_7fffffffffeefa0_344_64))
(assert
 (let ((?x278280 ((_ extract 15 12) mem_7fffffffffef048_398_32)))
 (= (_ bv2 4) ?x278280)))
(assert
 (= mem_7fffffffffef058_431_64 mem_7fffffffffeefc8_430_64))
(assert
 (let ((?x448396 (bvadd (_ bv576460752303354917 64) strlen_986_64)))
 (let ((?x448386 ((_ extract 7 0) mem_7fffffffffef425_984_64)))
 (let (($x448379 (= (_ bv0 8) ?x448386)))
 (let ((?x116240 (ite $x448379 (_ bv576460752303354924 64) (_ bv576460752303354925 64))))
 (let ((?x448338 ((_ extract 15 8) mem_7fffffffffef425_984_64)))
 (let (($x442876 (= (_ bv0 8) ?x448338)))
 (let ((?x119400 (ite $x442876 (_ bv576460752303354923 64) ?x116240)))
 (let ((?x448374 ((_ extract 23 16) mem_7fffffffffef425_984_64)))
 (let (($x446240 (= (_ bv0 8) ?x448374)))
 (let ((?x276917 (ite $x446240 (_ bv576460752303354922 64) ?x119400)))
 (let ((?x442858 ((_ extract 31 24) mem_7fffffffffef425_984_64)))
 (let (($x448342 (= (_ bv0 8) ?x442858)))
 (let ((?x276826 (ite $x448342 (_ bv576460752303354921 64) ?x276917)))
 (let ((?x446360 ((_ extract 39 32) mem_7fffffffffef425_984_64)))
 (let (($x448387 (= (_ bv0 8) ?x446360)))
 (let ((?x119860 (ite $x448387 (_ bv576460752303354920 64) ?x276826)))
 (let ((?x448362 ((_ extract 47 40) mem_7fffffffffef425_984_64)))
 (let (($x446494 (= (_ bv0 8) ?x448362)))
 (let ((?x117259 (ite $x446494 (_ bv576460752303354919 64) ?x119860)))
 (let ((?x448389 ((_ extract 55 48) mem_7fffffffffef425_984_64)))
 (let (($x442868 (= (_ bv0 8) ?x448389)))
 (let ((?x119730 (ite $x442868 (_ bv576460752303354918 64) ?x117259)))
 (let ((?x446462 ((_ extract 63 56) mem_7fffffffffef425_984_64)))
 (let (($x446502 (= (_ bv0 8) ?x446462)))
 (let ((?x116346 (ite $x446502 (_ bv576460752303354917 64) ?x119730)))
 (= ?x116346 ?x448396)))))))))))))))))))))))))))
(assert
 (let ((?x448467 (bvadd (_ bv1 64) strlen_986_64)))
 (let ((?x449136 ((_ extract 63 4) ?x448467)))
 (= (_ bv0 60) ?x449136))))
(assert
 (let ((?x449132 ((_ extract 3 0) strlen_986_64)))
 (let ((?x446635 (bvadd (_ bv1 4) ?x449132)))
 (bvule ?x446635 (_ bv9 4)))))
(assert
 (let ((?x448467 (bvadd (_ bv1 64) strlen_986_64)))
 (let (($x448493 (bvule (_ bv31 64) strlen_986_64)))
 (let (($x448643 (bvule strlen_986_64 (_ bv18446744073709551614 64))))
 (let (($x448969 (and $x448643 $x448493)))
 (let ((?x448926 (ite $x448969 (_ bv32 64) ?x448467)))
 (bvule (_ bv1 64) ?x448926)))))))
(assert
 (let (($x448493 (bvule (_ bv31 64) strlen_986_64)))
 (let (($x448726 (not $x448493)))
 (let (($x448643 (bvule strlen_986_64 (_ bv18446744073709551614 64))))
 (let (($x448713 (not $x448643)))
 (or $x448713 $x448726))))))
(assert
 (= (_ bv4294967295 32) access_2286_32))
(assert
 (= (_ bv4294967295 32) access_3256_32))
(assert
 (= (_ bv31 64) strlen_8788_64))
(assert
 (let ((?x1750837 ((_ extract 15 8) mem_2c_8787_264)))
 (= (_ bv0 8) ?x1750837)))
(assert
 (let ((?x1750831 ((_ extract 23 16) mem_2c_8787_264)))
 (let (($x1750825 (= (_ bv0 8) ?x1750831)))
 (not $x1750825))))
(assert
 (let ((?x1750761 ((_ extract 31 24) mem_2c_8787_264)))
 (let (($x1750749 (= (_ bv0 8) ?x1750761)))
 (not $x1750749))))
(assert
 (let ((?x1750940 ((_ extract 39 32) mem_2c_8787_264)))
 (let (($x1750734 (= (_ bv0 8) ?x1750940)))
 (not $x1750734))))
(assert
 (let ((?x1750804 ((_ extract 47 40) mem_2c_8787_264)))
 (let (($x1748565 (= (_ bv0 8) ?x1750804)))
 (not $x1748565))))
(assert
 (let ((?x1751085 ((_ extract 55 48) mem_2c_8787_264)))
 (let (($x1750780 (= (_ bv0 8) ?x1751085)))
 (not $x1750780))))
(assert
 (let ((?x1750805 ((_ extract 63 56) mem_2c_8787_264)))
 (let (($x1751489 (= (_ bv0 8) ?x1750805)))
 (not $x1751489))))
(assert
 (let ((?x1750795 ((_ extract 71 64) mem_2c_8787_264)))
 (let (($x1751427 (= (_ bv0 8) ?x1750795)))
 (not $x1751427))))
(assert
 (let ((?x1751147 ((_ extract 79 72) mem_2c_8787_264)))
 (let (($x1751131 (= (_ bv0 8) ?x1751147)))
 (not $x1751131))))
(assert
 (let ((?x1751180 ((_ extract 87 80) mem_2c_8787_264)))
 (let (($x1750786 (= (_ bv0 8) ?x1751180)))
 (not $x1750786))))
(assert
 (let ((?x1750740 ((_ extract 95 88) mem_2c_8787_264)))
 (let (($x1727222 (= (_ bv0 8) ?x1750740)))
 (not $x1727222))))
(assert
 (let ((?x1750738 ((_ extract 103 96) mem_2c_8787_264)))
 (let (($x1750744 (= (_ bv0 8) ?x1750738)))
 (not $x1750744))))
(assert
 (let ((?x1751264 ((_ extract 111 104) mem_2c_8787_264)))
 (let (($x1750759 (= (_ bv0 8) ?x1751264)))
 (not $x1750759))))
(assert
 (let ((?x1750792 ((_ extract 119 112) mem_2c_8787_264)))
 (let (($x1750886 (= (_ bv0 8) ?x1750792)))
 (not $x1750886))))
(assert
 (let ((?x1751407 ((_ extract 127 120) mem_2c_8787_264)))
 (let (($x1750944 (= (_ bv0 8) ?x1751407)))
 (not $x1750944))))
(assert
 (let ((?x1751179 ((_ extract 135 128) mem_2c_8787_264)))
 (let (($x1750758 (= (_ bv0 8) ?x1751179)))
 (not $x1750758))))
(assert
 (let ((?x1750750 ((_ extract 143 136) mem_2c_8787_264)))
 (let (($x1750752 (= (_ bv0 8) ?x1750750)))
 (not $x1750752))))
(assert
 (let ((?x1750746 ((_ extract 151 144) mem_2c_8787_264)))
 (let (($x1750765 (= (_ bv0 8) ?x1750746)))
 (not $x1750765))))
(assert
 (let ((?x1750619 ((_ extract 159 152) mem_2c_8787_264)))
 (let (($x1750753 (= (_ bv0 8) ?x1750619)))
 (not $x1750753))))
(assert
 (let ((?x1749174 ((_ extract 167 160) mem_2c_8787_264)))
 (let (($x1751125 (= (_ bv0 8) ?x1749174)))
 (not $x1751125))))
(assert
 (let ((?x515212 ((_ extract 175 168) mem_2c_8787_264)))
 (let (($x1751267 (= (_ bv0 8) ?x515212)))
 (not $x1751267))))
(assert
 (let ((?x1751204 ((_ extract 183 176) mem_2c_8787_264)))
 (let (($x1750743 (= (_ bv0 8) ?x1751204)))
 (not $x1750743))))
(assert
 (let ((?x1751137 ((_ extract 191 184) mem_2c_8787_264)))
 (let (($x1751260 (= (_ bv0 8) ?x1751137)))
 (not $x1751260))))
(assert
 (let ((?x1750741 ((_ extract 199 192) mem_2c_8787_264)))
 (let (($x1728248 (= (_ bv0 8) ?x1750741)))
 (not $x1728248))))
(assert
 (let ((?x1750801 ((_ extract 207 200) mem_2c_8787_264)))
 (let (($x1751185 (= (_ bv0 8) ?x1750801)))
 (not $x1751185))))
(assert
 (let ((?x1750777 ((_ extract 215 208) mem_2c_8787_264)))
 (let (($x1726995 (= (_ bv0 8) ?x1750777)))
 (not $x1726995))))
(assert
 (let ((?x1750747 ((_ extract 223 216) mem_2c_8787_264)))
 (let (($x1749340 (= (_ bv0 8) ?x1750747)))
 (not $x1749340))))
(assert
 (let ((?x1751262 ((_ extract 231 224) mem_2c_8787_264)))
 (let (($x1750564 (= (_ bv0 8) ?x1751262)))
 (not $x1750564))))
(assert
 (let ((?x1750735 ((_ extract 239 232) mem_2c_8787_264)))
 (let (($x1750866 (= (_ bv0 8) ?x1750735)))
 (not $x1750866))))
(assert
 (let ((?x1726017 ((_ extract 247 240) mem_2c_8787_264)))
 (let (($x1750828 (= (_ bv0 8) ?x1726017)))
 (not $x1750828))))
(assert
 (let ((?x518840 ((_ extract 255 248) mem_2c_8787_264)))
 (let (($x1750798 (= (_ bv0 8) ?x518840)))
 (not $x1750798))))
(assert
 (let ((?x1750764 ((_ extract 263 256) mem_2c_8787_264)))
 (let (($x1750755 (= (_ bv0 8) ?x1750764)))
 (not $x1750755))))
(assert
 (let ((?x1997020 ((_ extract 7 0) mem_7fffffffffef740_9645_248)))
 (let ((?x1997099 ((_ extract 15 0) mem_7fffffffffef740_9645_248)))
 (let ((?x1997111 ((_ extract 23 0) mem_7fffffffffef740_9645_248)))
 (let ((?x1997123 ((_ extract 31 0) mem_7fffffffffef740_9645_248)))
 (let ((?x1997130 ((_ extract 39 0) mem_7fffffffffef740_9645_248)))
 (let ((?x1997136 ((_ extract 47 0) mem_7fffffffffef740_9645_248)))
 (let ((?x1997142 ((_ extract 55 0) mem_7fffffffffef740_9645_248)))
 (let ((?x1997148 ((_ extract 63 0) mem_7fffffffffef740_9645_248)))
 (let ((?x1997154 ((_ extract 71 0) mem_7fffffffffef740_9645_248)))
 (let ((?x1997161 ((_ extract 79 0) mem_7fffffffffef740_9645_248)))
 (let ((?x1997167 ((_ extract 87 0) mem_7fffffffffef740_9645_248)))
 (let ((?x1997174 ((_ extract 95 0) mem_7fffffffffef740_9645_248)))
 (let ((?x1997180 ((_ extract 103 0) mem_7fffffffffef740_9645_248)))
 (let ((?x1997102 ((_ extract 111 0) mem_7fffffffffef740_9645_248)))
 (let ((?x1997082 ((_ extract 119 0) mem_7fffffffffef740_9645_248)))
 (let ((?x1997110 ((_ extract 127 0) mem_7fffffffffef740_9645_248)))
 (let ((?x1997052 ((_ extract 135 0) mem_7fffffffffef740_9645_248)))
 (let ((?x1997104 ((_ extract 143 0) mem_7fffffffffef740_9645_248)))
 (let ((?x1997100 ((_ extract 151 0) mem_7fffffffffef740_9645_248)))
 (let ((?x1997098 ((_ extract 159 0) mem_7fffffffffef740_9645_248)))
 (let ((?x1996995 ((_ extract 167 0) mem_7fffffffffef740_9645_248)))
 (let ((?x1997086 ((_ extract 175 0) mem_7fffffffffef740_9645_248)))
 (let ((?x1995499 ((_ extract 183 0) mem_7fffffffffef740_9645_248)))
 (let ((?x1996966 ((_ extract 191 0) mem_7fffffffffef740_9645_248)))
 (let ((?x1997031 ((_ extract 199 0) mem_7fffffffffef740_9645_248)))
 (let ((?x1995483 ((_ extract 207 0) mem_7fffffffffef740_9645_248)))
 (let ((?x1996940 ((_ extract 215 0) mem_7fffffffffef740_9645_248)))
 (let ((?x1997013 ((_ extract 223 0) mem_7fffffffffef740_9645_248)))
 (let ((?x1996841 ((_ extract 231 0) mem_7fffffffffef740_9645_248)))
 (let ((?x1997023 ((_ extract 239 0) mem_7fffffffffef740_9645_248)))
 (let ((?x533723 ((_ extract 263 16) mem_2c_8787_264)))
 (let (($x1828913 (= (_ bv1 64) strlen_8788_64)))
 (let ((?x1997025 (ite $x1828913 ?x533723 mem_7fffffffffef740_9645_248)))
 (let ((?x1996894 ((_ extract 247 240) ?x1997025)))
 (let ((?x1997021 (concat ?x1996894 ?x1997023)))
 (let (($x1828552 (= (_ bv2 64) strlen_8788_64)))
 (let ((?x1997451 (ite $x1828552 ?x533723 ?x1997021)))
 (let ((?x1997029 ((_ extract 247 232) ?x1997451)))
 (let ((?x1997033 (concat ?x1997029 ?x1996841)))
 (let (($x1828840 (= (_ bv3 64) strlen_8788_64)))
 (let ((?x1996973 (ite $x1828840 ?x533723 ?x1997033)))
 (let ((?x1997019 ((_ extract 247 224) ?x1996973)))
 (let ((?x1997004 (concat ?x1997019 ?x1997013)))
 (let (($x549152 (= (_ bv4 64) strlen_8788_64)))
 (let ((?x1997006 (ite $x549152 ?x533723 ?x1997004)))
 (let ((?x1996991 ((_ extract 247 216) ?x1997006)))
 (let ((?x1997034 (concat ?x1996991 ?x1996940)))
 (let (($x1828822 (= (_ bv5 64) strlen_8788_64)))
 (let ((?x1997036 (ite $x1828822 ?x533723 ?x1997034)))
 (let ((?x1996826 ((_ extract 247 208) ?x1997036)))
 (let ((?x1997012 (concat ?x1996826 ?x1995483)))
 (let (($x1828797 (= (_ bv6 64) strlen_8788_64)))
 (let ((?x1996136 (ite $x1828797 ?x533723 ?x1997012)))
 (let ((?x1996997 ((_ extract 247 200) ?x1996136)))
 (let ((?x1997018 (concat ?x1996997 ?x1997031)))
 (let (($x1828811 (= (_ bv7 64) strlen_8788_64)))
 (let ((?x1993899 (ite $x1828811 ?x533723 ?x1997018)))
 (let ((?x1996984 ((_ extract 247 192) ?x1993899)))
 (let ((?x1997047 (concat ?x1996984 ?x1996966)))
 (let (($x1828564 (= (_ bv8 64) strlen_8788_64)))
 (let ((?x1996114 (ite $x1828564 ?x533723 ?x1997047)))
 (let ((?x1997085 ((_ extract 247 184) ?x1996114)))
 (let ((?x1828058 (concat ?x1997085 ?x1995499)))
 (let (($x1828590 (= (_ bv9 64) strlen_8788_64)))
 (let ((?x1997122 (ite $x1828590 ?x533723 ?x1828058)))
 (let ((?x1997120 ((_ extract 247 176) ?x1997122)))
 (let ((?x1997066 (concat ?x1997120 ?x1997086)))
 (let (($x1828869 (= (_ bv10 64) strlen_8788_64)))
 (let ((?x1996884 (ite $x1828869 ?x533723 ?x1997066)))
 (let ((?x1997088 ((_ extract 247 168) ?x1996884)))
 (let ((?x1997096 (concat ?x1997088 ?x1996995)))
 (let (($x1828588 (= (_ bv11 64) strlen_8788_64)))
 (let ((?x1997070 (ite $x1828588 ?x533723 ?x1997096)))
 (let ((?x1997112 ((_ extract 247 160) ?x1997070)))
 (let ((?x1997063 (concat ?x1997112 ?x1997098)))
 (let (($x1828586 (= (_ bv12 64) strlen_8788_64)))
 (let ((?x1997059 (ite $x1828586 ?x533723 ?x1997063)))
 (let ((?x1997049 ((_ extract 247 152) ?x1997059)))
 (let ((?x1997058 (concat ?x1997049 ?x1997100)))
 (let (($x1828884 (= (_ bv13 64) strlen_8788_64)))
 (let ((?x1997046 (ite $x1828884 ?x533723 ?x1997058)))
 (let ((?x1996941 ((_ extract 247 144) ?x1997046)))
 (let ((?x1997074 (concat ?x1996941 ?x1997104)))
 (let (($x1828829 (= (_ bv14 64) strlen_8788_64)))
 (let ((?x1997089 (ite $x1828829 ?x533723 ?x1997074)))
 (let ((?x1993847 ((_ extract 247 136) ?x1997089)))
 (let ((?x1997054 (concat ?x1993847 ?x1997052)))
 (let (($x1754808 (= (_ bv15 64) strlen_8788_64)))
 (let ((?x1997124 (ite $x1754808 ?x533723 ?x1997054)))
 (let ((?x1997106 ((_ extract 247 128) ?x1997124)))
 (let ((?x1996988 (concat ?x1997106 ?x1997110)))
 (let (($x1828555 (= (_ bv16 64) strlen_8788_64)))
 (let ((?x1997051 (ite $x1828555 ?x533723 ?x1996988)))
 (let ((?x1997079 ((_ extract 247 120) ?x1997051)))
 (let ((?x1997094 (concat ?x1997079 ?x1997082)))
 (let (($x1828550 (= (_ bv17 64) strlen_8788_64)))
 (let ((?x1997072 (ite $x1828550 ?x533723 ?x1997094)))
 (let ((?x1997077 ((_ extract 247 112) ?x1997072)))
 (let ((?x1997184 (concat ?x1997077 ?x1997102)))
 (let (($x1828578 (= (_ bv18 64) strlen_8788_64)))
 (let ((?x1997183 (ite $x1828578 ?x533723 ?x1997184)))
 (let ((?x1997181 ((_ extract 247 104) ?x1997183)))
 (let ((?x1997178 (concat ?x1997181 ?x1997180)))
 (let (($x550121 (= (_ bv19 64) strlen_8788_64)))
 (let ((?x1997177 (ite $x550121 ?x533723 ?x1997178)))
 (let ((?x1997175 ((_ extract 247 96) ?x1997177)))
 (let ((?x1997172 (concat ?x1997175 ?x1997174)))
 (let (($x1754862 (= (_ bv20 64) strlen_8788_64)))
 (let ((?x1997170 (ite $x1754862 ?x533723 ?x1997172)))
 (let ((?x1997168 ((_ extract 247 88) ?x1997170)))
 (let ((?x1997165 (concat ?x1997168 ?x1997167)))
 (let (($x1754915 (= (_ bv21 64) strlen_8788_64)))
 (let ((?x1997164 (ite $x1754915 ?x533723 ?x1997165)))
 (let ((?x1997162 ((_ extract 247 80) ?x1997164)))
 (let ((?x1997158 (concat ?x1997162 ?x1997161)))
 (let (($x1754960 (= (_ bv22 64) strlen_8788_64)))
 (let ((?x1997157 (ite $x1754960 ?x533723 ?x1997158)))
 (let ((?x1997155 ((_ extract 247 72) ?x1997157)))
 (let ((?x1997152 (concat ?x1997155 ?x1997154)))
 (let (($x1754933 (= (_ bv23 64) strlen_8788_64)))
 (let ((?x1997151 (ite $x1754933 ?x533723 ?x1997152)))
 (let ((?x1997149 ((_ extract 247 64) ?x1997151)))
 (let ((?x1997146 (concat ?x1997149 ?x1997148)))
 (let (($x1828580 (= (_ bv24 64) strlen_8788_64)))
 (let ((?x1997145 (ite $x1828580 ?x533723 ?x1997146)))
 (let ((?x1997143 ((_ extract 247 56) ?x1997145)))
 (let ((?x1997140 (concat ?x1997143 ?x1997142)))
 (let (($x1755025 (= (_ bv25 64) strlen_8788_64)))
 (let ((?x1997139 (ite $x1755025 ?x533723 ?x1997140)))
 (let ((?x1997137 ((_ extract 247 48) ?x1997139)))
 (let ((?x1997134 (concat ?x1997137 ?x1997136)))
 (let (($x1754944 (= (_ bv26 64) strlen_8788_64)))
 (let ((?x1997133 (ite $x1754944 ?x533723 ?x1997134)))
 (let ((?x1997131 ((_ extract 247 40) ?x1997133)))
 (let ((?x1997128 (concat ?x1997131 ?x1997130)))
 (let (($x1755014 (= (_ bv27 64) strlen_8788_64)))
 (let ((?x1996835 (ite $x1755014 ?x533723 ?x1997128)))
 (let ((?x1997125 ((_ extract 247 32) ?x1996835)))
 (let ((?x1997119 (concat ?x1997125 ?x1997123)))
 (let (($x1754733 (= (_ bv28 64) strlen_8788_64)))
 (let ((?x1997117 (ite $x1754733 ?x533723 ?x1997119)))
 (let ((?x1997113 ((_ extract 247 24) ?x1997117)))
 (let ((?x1997107 (concat ?x1997113 ?x1997111)))
 (let (($x1828575 (= (_ bv29 64) strlen_8788_64)))
 (let ((?x1997105 (ite $x1828575 ?x533723 ?x1997107)))
 (let ((?x1997101 ((_ extract 247 16) ?x1997105)))
 (let ((?x1997095 (concat ?x1997101 ?x1997099)))
 (let (($x1754996 (= (_ bv30 64) strlen_8788_64)))
 (let ((?x1997093 (ite $x1754996 ?x533723 ?x1997095)))
 (let ((?x1997090 ((_ extract 247 8) ?x1997093)))
 (let ((?x1997081 (concat ?x1997090 ?x1997020)))
 (let (($x1828540 (= (_ bv31 64) strlen_8788_64)))
 (let ((?x1997022 (ite $x1828540 ?x533723 ?x1997081)))
 (let ((?x2200636 ((_ extract 7 0) ?x1997022)))
 (let (($x2200560 (= (_ bv0 8) ?x2200636)))
 (let ((?x1996590 (ite $x2200560 (_ bv576460752303355742 64) (_ bv576460752303355743 64))))
 (let ((?x2200710 ((_ extract 15 8) ?x1997022)))
 (let (($x2200357 (= (_ bv0 8) ?x2200710)))
 (let ((?x2200540 (ite $x2200357 (_ bv576460752303355741 64) ?x1996590)))
 (let ((?x2200545 ((_ extract 23 16) ?x1997022)))
 (let (($x2200354 (= (_ bv0 8) ?x2200545)))
 (let ((?x2200496 (ite $x2200354 (_ bv576460752303355740 64) ?x2200540)))
 (let ((?x2200565 ((_ extract 31 24) ?x1997022)))
 (let (($x2200322 (= (_ bv0 8) ?x2200565)))
 (let ((?x1997076 (ite $x2200322 (_ bv576460752303355739 64) ?x2200496)))
 (let ((?x2198890 ((_ extract 39 32) ?x1997022)))
 (let (($x2200313 (= (_ bv0 8) ?x2198890)))
 (let ((?x2200296 (ite $x2200313 (_ bv576460752303355738 64) ?x1997076)))
 (let ((?x2200674 ((_ extract 47 40) ?x1997022)))
 (let (($x2200311 (= (_ bv0 8) ?x2200674)))
 (let ((?x1997071 (ite $x2200311 (_ bv576460752303355737 64) ?x2200296)))
 (let ((?x2200284 ((_ extract 55 48) ?x1997022)))
 (let (($x2200305 (= (_ bv0 8) ?x2200284)))
 (let ((?x1752658 (ite $x2200305 (_ bv576460752303355736 64) ?x1997071)))
 (let ((?x2200558 ((_ extract 63 56) ?x1997022)))
 (let (($x2200290 (= (_ bv0 8) ?x2200558)))
 (let ((?x2200297 (ite $x2200290 (_ bv576460752303355735 64) ?x1752658)))
 (let ((?x2199988 ((_ extract 71 64) ?x1997022)))
 (let (($x1996596 (= (_ bv0 8) ?x2199988)))
 (let ((?x1997008 (ite $x1996596 (_ bv576460752303355734 64) ?x2200297)))
 (let ((?x2200637 ((_ extract 79 72) ?x1997022)))
 (let (($x2200077 (= (_ bv0 8) ?x2200637)))
 (let ((?x2200247 (ite $x2200077 (_ bv576460752303355733 64) ?x1997008)))
 (let ((?x2200306 ((_ extract 87 80) ?x1997022)))
 (let (($x2200023 (= (_ bv0 8) ?x2200306)))
 (let ((?x2200295 (ite $x2200023 (_ bv576460752303355732 64) ?x2200247)))
 (let ((?x2200281 ((_ extract 95 88) ?x1997022)))
 (let (($x2200008 (= (_ bv0 8) ?x2200281)))
 (let ((?x2200671 (ite $x2200008 (_ bv576460752303355731 64) ?x2200295)))
 (let ((?x2200137 ((_ extract 103 96) ?x1997022)))
 (let (($x2200007 (= (_ bv0 8) ?x2200137)))
 (let ((?x2200126 (ite $x2200007 (_ bv576460752303355730 64) ?x2200671)))
 (let ((?x2199946 ((_ extract 111 104) ?x1997022)))
 (let (($x1997191 (= (_ bv0 8) ?x2199946)))
 (let ((?x2200679 (ite $x1997191 (_ bv576460752303355729 64) ?x2200126)))
 (let ((?x2199991 ((_ extract 119 112) ?x1997022)))
 (let (($x1997190 (= (_ bv0 8) ?x2199991)))
 (let ((?x2200662 (ite $x1997190 (_ bv576460752303355728 64) ?x2200679)))
 (let ((?x2200040 ((_ extract 127 120) ?x1997022)))
 (let (($x1997188 (= (_ bv0 8) ?x2200040)))
 (let ((?x2200291 (ite $x1997188 (_ bv576460752303355727 64) ?x2200662)))
 (let ((?x2200640 ((_ extract 135 128) ?x1997022)))
 (let (($x1997187 (= (_ bv0 8) ?x2200640)))
 (let ((?x2200564 (ite $x1997187 (_ bv576460752303355726 64) ?x2200291)))
 (let ((?x2200203 ((_ extract 143 136) ?x1997022)))
 (let (($x1997065 (= (_ bv0 8) ?x2200203)))
 (let ((?x2200705 (ite $x1997065 (_ bv576460752303355725 64) ?x2200564)))
 (let ((?x2198945 ((_ extract 151 144) ?x1997022)))
 (let (($x1997064 (= (_ bv0 8) ?x2198945)))
 (let ((?x2200623 (ite $x1997064 (_ bv576460752303355724 64) ?x2200705)))
 (let ((?x2200509 ((_ extract 159 152) ?x1997022)))
 (let (($x1997061 (= (_ bv0 8) ?x2200509)))
 (let ((?x2200334 (ite $x1997061 (_ bv576460752303355723 64) ?x2200623)))
 (let ((?x2200192 ((_ extract 167 160) ?x1997022)))
 (let (($x1997060 (= (_ bv0 8) ?x2200192)))
 (let ((?x2199987 (ite $x1997060 (_ bv576460752303355722 64) ?x2200334)))
 (let ((?x2199944 ((_ extract 175 168) ?x1997022)))
 (let (($x1997055 (= (_ bv0 8) ?x2199944)))
 (let ((?x2198958 (ite $x1997055 (_ bv576460752303355721 64) ?x2199987)))
 (let ((?x2200018 ((_ extract 183 176) ?x1997022)))
 (let (($x1997053 (= (_ bv0 8) ?x2200018)))
 (let ((?x2200063 (ite $x1997053 (_ bv576460752303355720 64) ?x2198958)))
 (let ((?x2200609 ((_ extract 191 184) ?x1997022)))
 (let (($x1997050 (= (_ bv0 8) ?x2200609)))
 (let ((?x2200582 (ite $x1997050 (_ bv576460752303355719 64) ?x2200063)))
 (let ((?x2199985 ((_ extract 199 192) ?x1997022)))
 (let (($x1997048 (= (_ bv0 8) ?x2199985)))
 (let ((?x2200533 (ite $x1997048 (_ bv576460752303355718 64) ?x2200582)))
 (let ((?x2200600 ((_ extract 207 200) ?x1997022)))
 (let (($x1996989 (= (_ bv0 8) ?x2200600)))
 (let ((?x2200581 (ite $x1996989 (_ bv576460752303355717 64) ?x2200533)))
 (let ((?x2200068 ((_ extract 215 208) ?x1997022)))
 (let (($x1996887 (= (_ bv0 8) ?x2200068)))
 (let ((?x2200337 (ite $x1996887 (_ bv576460752303355716 64) ?x2200581)))
 (let ((?x2200553 ((_ extract 223 216) ?x1997022)))
 (let (($x1996866 (= (_ bv0 8) ?x2200553)))
 (let ((?x2200253 (ite $x1996866 (_ bv576460752303355715 64) ?x2200337)))
 (let ((?x2200537 ((_ extract 231 224) ?x1997022)))
 (let (($x1996823 (= (_ bv0 8) ?x2200537)))
 (let ((?x2200293 (ite $x1996823 (_ bv576460752303355714 64) ?x2200253)))
 (let ((?x2200682 ((_ extract 239 232) ?x1997022)))
 (let (($x1996809 (= (_ bv0 8) ?x2200682)))
 (let ((?x2199935 (ite $x1996809 (_ bv576460752303355713 64) ?x2200293)))
 (let ((?x1997091 ((_ extract 247 240) ?x1997022)))
 (let (($x1995984 (= (_ bv0 8) ?x1997091)))
 (let ((?x2200593 (ite $x1995984 (_ bv576460752303355712 64) ?x2199935)))
 (let ((?x2200614 (bvsub ?x2200593 (_ bv576460752303355712 64))))
 (= ?x2200614 strlen_10770_64)))))))))))))))))))))))))))))))))))))))))))))))))))))))))))))))))))))))))))))))))))))))))))))))))))))))))))))))))))))))))))))))))))))))))))))))))))))))))))))))))))))))))))))))))))))))))))))))))))))))))))))))))))))))))))))))))))))))))))))))))))))))))
(maximize mem_7fffffffffeefa8_298_64)
(minimize syscall_stub_newfstatat_220_64)
(maximize filesize_file_0_/proc/self/loginuid_88_64)
(minimize mem_7fffffffffeefa8_298_64)
(minimize mem_7fffffffffef038_297_64)
(minimize strlen_8788_64)
(maximize syscall_stub_newfstatat_124_64)
(maximize strlen_83_64)
(minimize access_3256_32)
(maximize mem_7fffffffffeefa0_344_64)
(minimize strncmp_ret_84_32)
(maximize mem_7fffffffffef425_984_64)
(minimize strlen_83_64)
(minimize strlen_85_64)
(minimize strlen_10770_64)
(maximize strlen_10770_64)
(minimize mem_7fffffffffef425_984_64)
(maximize mem_7fffffffffef030_345_64)
(maximize syscall_stub_readlink_160_64)
(minimize mem_7fffffffffef048_398_32)
(minimize args_1_8)
(minimize syscall_stub_ioctl_95_32)
(maximize access_2286_32)
(minimize mem_7fffffffffef030_345_64)
(minimize mem_2c_8787_264)
(maximize syscall_stub_ioctl_95_32)
(minimize mem_7fffffffffef740_9645_248)
(maximize syscall_stub_newfstatat_220_64)
(maximize mem_2c_8787_264)
(maximize mem_7fffffffffef038_297_64)
(minimize filesize_file_0_/proc/self/loginuid_88_64)
(maximize mem_7fffffffffef740_9645_248)
(minimize strncmp_ret_86_32)
(maximize mem_7fffffffffef420_174_8)
(minimize strlen_986_64)
(maximize strlen_986_64)
(maximize strlen_85_64)
(minimize mem_7fffffffffeefa0_344_64)
(maximize strncmp_ret_86_32)
(maximize access_3256_32)
(minimize access_2286_32)
(maximize args_1_8)
(maximize strlen_8788_64)
(maximize mem_7fffffffffeefc8_430_64)
(minimize syscall_stub_readlink_160_64)
(maximize strncmp_ret_84_32)
(maximize mem_7fffffffffef058_431_64)
(minimize mem_7fffffffffeefc8_430_64)
(minimize mem_7fffffffffef420_174_8)
(minimize syscall_stub_newfstatat_124_64)
(maximize mem_7fffffffffef048_398_32)
(minimize mem_7fffffffffef058_431_64)
(check-sat)
(get-objectives)
